L=18;
no=6;
njo=[7,6,7,8,8,8];
djo=[6,6,7,6,6,9];
trab=[6,4,4,2,3,2,3,6,3,6,6,6,2,2,2,4,6,6,6,3,2,3,2,4,3,12,12,6,6,6,12,2,12,4,2,6,18,2,12,3];
nprec=7;
prec=[| 2, 10,
      | 6, 11,
      | 13, 18,
      | 15, 23,
      | 23, 29,
      | 25, 30,
      | 28, 33 |];


%%%%%%%%%%%%%%%%%%%%%%%%%%%%%%%%%%%%%%%%%%%%%%%%%%%%%%%%%%%%%%%%%%%%%%
%  6
%
%  7   1   7   6  21
%  6   4   4   2   3   2 
%  1   1   1   0   0
%  1   2   2   0   1
%      2   3  10
%  1   3   3   0   0
%  1   4   4   0   0
%  1   5   5   0   0
%  1   6   6   0   1
%      2   4  11
%  1   7   7   0   0
%
%  6   8  13   6  30
%  3   6   3   6   6   6 
%  2   1   8   0   0
%  2   2   9   0   0
%  2   3  10   1   0
%      1   2   2
%  2   4  11   1   0
%      1   6   6
%  2   5  12   0   0
%  2   6  13   0   1
%      3   5  18
%
%  7  14  20   7  28
%  2   2   2   4   6   6   6 
%  3   1  14   0   0
%  3   2  15   0   1
%      4   3  23
%  3   3  16   0   0
%  3   4  17   0   0
%  3   5  18   1   0
%      2   6  13
%  3   6  19   0   0
%  3   7  20   0   0
%
%  8  21  28   6  17
%  3   2   3   2   4   3 
%  4   1  21   0   0
%  4   2  22   0   0
%  4   3  23   1   1
%      3   2  15
%      5   1  29
%  4   4  24   0   0
%  4   5  25   0   1
%      5   2  30
%  4   6  26   0   0
%  4   7  27   0   0
%  4   8  28   0   1
%      5   5  33
%
%  8  29  36   6  54
% 12  12   6   6   6  12 
%  5   1  29   1   0
%      4   3  23
%  5   2  30   1   0
%      4   5  25
%  5   3  31   0   0
%  5   4  32   0   0
%  5   5  33   1   0
%      4   8  28
%  5   6  34   0   0
%  5   7  35   0   0
%  5   8  36   0   0
%
%  8  37  44   9  61
%  2  12   4   2   6  18   2  12   3 
%  6   1  37   0   0
%  6   2  38   0   0
%  6   3  39   0   0
%  6   4  40   0   0
%  6   5  41   0   0
%  6   6  42   0   0
%  6   7  43   0   0
%  6   8  44   0   0
%
% 75
